
se = 40; % nombre de sessions
gr = 20; % nombre de grups de treball
cl = 7; % nombre de slots
minPapersPerSlot = 3; % minim nombre d'articles per sessio i slot
maxSesionsPar = 14; % maxim nombre de sessions paraleles

npMax = [5, 5, 5, 3, 4, 6, 3]; % nombre maxim de papers per slot

np = [15, 3, 15, 3, 13, 5, 10, 3, 16, 8, 3, 14, 11, 3, 3, 12, 3, 15, 3, 7, 3, 3, 10, 3, 3, 6, 13, 11, 3, 5, 9, 3, 3, 3, 3, 12, 12, 10, 12, 11]; % nombre de papers acceptats a cada sessio

WG = [ {1}, {}, {2}, {3}, {4,5,6}, {}, {7}, {8}, {9,10}, {}, {11}, {12}, {13}, {14}, {15}, {16}, {}, {17,18}, {19,20,1}, {}, {2}, {3,4}, {5,6}, {7}, {8}, {}, {}, {9}, {10}, {}, {11,12}, {13}, {14}, {15}, {16}, {}, {17}, {18}, {19}, {20} ]; % grups per sessio

